# Objective value = 20
WA1n 0
WA1p 0
WA2n 1
WA2p 0
WB1n 1
WB1p 0
WC1n 0
WC1p 1
WD1n 1
WD1p 0
WD2n 1
WD2p 0
WE1n 0
WE1p 2
WF1n 0
WF1p 4
WF2n 0
WF2p 1
WT1n 0
WT1p 3
WT2n 0
WT2p 1
5 7
a 0
b 0
c 0
d 1
e 0
f 0
g 1
h 1
i 1
j 1
k 1
